c NeuroCodeBench 2.0 CNF formula with verdict Unsat
p cnf 89 89
1 83 70 -80 -8 -79 39 0
-1 -17 69 -71 50 -59 -78 0
-1 17 -64 -60 -10 -29 0
-1 -17 -69 87 76 42 -67 78 48 -36 0
-1 -17 69 -71 -50 80 51 -88 0
1 -83 -34 37 24 0
-1 -17 -69 -87 -4 -53 -54 0
-1 17 -64 -60 10 -81 -38 0
-1 -17 69 -71 -50 -80 -2 0
-1 -17 -69 87 -76 -12 20 -13 0
-1 17 64 -38 -18 -78 -52 0
-1 -17 69 -71 -50 80 51 88 0
-1 -17 69 71 -30 -75 81 -66 88 68 0
-1 17 -64 60 29 0
1 -83 34 -72 -14 0
1 83 70 -80 -8 -79 -39 0
1 83 70 80 -50 16 0
-1 17 64 -38 -18 78 60 0
1 -83 34 72 56 14 68 0
-1 17 -64 -60 10 81 0
-1 -17 69 71 30 -89 11 0
-1 -17 -69 -87 4 81 0
-1 -17 69 71 -30 -75 81 66 0
-1 17 64 -38 18 71 53 -49 27 0
-1 -17 69 -71 -50 -80 2 62 0
1 83 70 80 -50 -16 0
-1 -17 -69 87 76 42 67 29 -56 0
1 -83 34 72 -56 -20 0
-1 -17 69 71 30 89 20 0
-1 -17 -69 -87 4 -81 -50 75 0
-1 17 64 -38 18 71 53 49 0
1 83 70 80 50 89 0
-1 17 64 38 0
1 -83 -34 -37 0
1 83 70 80 50 -89 14 0
-1 -17 -69 87 76 42 67 29 56 0
-1 -17 -69 87 76 42 -67 78 48 36 0
1 83 70 80 50 -89 -14 0
1 -83 34 72 56 -14 4 0
-1 17 -64 60 -29 86 0
-1 17 64 -38 18 71 53 -49 -27 79 -84 0
-1 -17 -69 87 -76 -12 -20 -65 0
-1 -17 -69 87 76 42 67 -29 0
-1 -17 69 -71 -50 -80 2 -62 0
-1 17 64 -38 -18 78 -60 -10 0
1 83 -70 -29 0
-1 -17 -69 87 76 -42 0
-1 -17 69 -71 50 59 18 0
-1 17 -64 -60 -10 29 0
-1 -17 -69 87 -76 -12 -20 65 0
1 83 70 -80 -8 79 -6 85 0
-1 17 64 -38 -18 -78 52 0
-1 -17 -69 -87 4 -81 50 0
-1 -17 -69 87 76 42 -67 -78 31 0
-1 17 64 -38 18 71 53 -49 -27 -79 0
-1 -17 69 71 -30 -75 -81 0
-1 -17 69 -71 -50 80 -51 0
-1 17 64 -38 18 -71 0
-1 -17 -69 -87 -4 -53 54 0
-1 -17 -69 87 -76 -12 20 13 0
1 83 70 -80 -8 79 6 0
-1 -17 -69 -87 -4 53 -35 0
-1 -17 69 -71 50 -59 78 0
-1 -17 69 -71 50 59 -18 81 0
-1 17 64 -38 18 71 -53 0
-1 -17 69 71 -30 75 0
-1 17 -64 60 -29 -86 0
-1 -17 -69 87 -76 12 71 0
1 -83 34 72 -56 20 0
-1 -17 69 71 -30 -75 81 -66 88 -68 0
-1 -17 69 -71 50 59 -18 -81 0
-1 -17 69 71 30 -89 -11 0
1 -83 34 72 56 -14 -4 0
-1 -17 69 71 30 89 -20 0
-1 -17 -69 87 76 42 -67 78 -48 0
-1 17 64 -38 -18 78 -60 10 0
-1 -17 -69 -87 4 -81 -50 -75 0
1 -83 34 -72 14 0
1 83 70 -80 8 0
1 -83 34 72 56 14 -68 0
-1 17 -64 -60 10 -81 38 0
-1 17 64 -38 18 71 53 -49 -27 79 84 0
-1 -17 69 71 -30 -75 81 -66 -88 0
-1 -17 -69 87 -76 12 -71 0
-1 -17 -69 87 76 42 -67 -78 -31 0
1 83 70 -80 -8 79 -6 -85 0
1 -83 -34 37 -24 0
1 83 -70 29 0
-1 -17 -69 -87 -4 53 35 0
